(set-info :source  loris-7.ddns.comp.nus.edu.sg/~project/hip/) 
;Variables declarations
(declare-fun right_62_1508_primed () Int)
(declare-fun left_62_1507_primed () Int)
(declare-fun val_62_1506_primed () Int)
(declare-fun Anon_1666 () Int)
(declare-fun t () Int)
(declare-fun t_primed () Int)
(declare-fun v_bool_61_1524_primed () Int)
(declare-fun nmin () Int)
(declare-fun n () Int)
(declare-fun nmin1_1668 () Int)
(declare-fun flted_26_1665 () Int)
(declare-fun l_1667 () Int)
(declare-fun nmin2_1670 () Int)
(declare-fun flted_26_1664 () Int)
(declare-fun r_1669 () Int)
;Relations declarations
;Axioms assertions
;Antecedent
(assert (= right_62_1508_primed r_1669))
(assert (= left_62_1507_primed l_1667))
(assert (= val_62_1506_primed Anon_1666))
(assert (= t_primed t))
(assert (> t_primed 0))
(assert (> v_bool_61_1524_primed 0))
(assert (exists ((min_32 Int)) (and (= nmin (+ 1 min_32)) (or (and (= min_32 nmin1_1668) (< nmin1_1668 nmin2_1670)) (and (= min_32 nmin2_1670) (>= nmin1_1668 nmin2_1670))))))
(assert (= (+ flted_26_1664 1) n))
(assert (= (+ flted_26_1665 1) n))
(assert (or (and (and (<= 1 nmin1_1668) (<= nmin1_1668 flted_26_1665)) (> l_1667 0)) (or (and (and (< l_1667 1) (= flted_26_1665 0)) (= nmin1_1668 0)) (and (and (<= 1 nmin1_1668) (< nmin1_1668 flted_26_1665)) (> l_1667 0)))))
(assert (or (and (and (<= 1 nmin2_1670) (<= nmin2_1670 flted_26_1664)) (> r_1669 0)) (or (and (and (< r_1669 1) (= flted_26_1664 0)) (= nmin2_1670 0)) (and (and (<= 1 nmin2_1670) (< nmin2_1670 flted_26_1664)) (> r_1669 0)))))
;Negation of Consequence
(assert (not false))
(check-sat)